param set_len = 48;
param target_sum = 13700942974;
param values := [1] 904576522 [2] 930952425 [3] 57961704 [4] 512023652 [5] 381215222 [6] 163839119 [7] 113084122 [8] 699614567 [9] 956363898 [10] 203310558 [11] 115904356 [12] 621880415 [13] 571947868 [14] 106822558 [15] 98033430 [16] 655410437 [17] 262944465 [18] 87568722 [19] 752344798 [20] 783816316 [21] 456940130 [22] 1256248 [23] 293072370 [24] 8548799 [25] 251128753 [26] 811272464 [27] 1048673252 [28] 110612883 [29] 387103357 [30] 293759559 [31] 477443975 [32] 747366561 [33] 1003359031 [34] 518102262 [35] 697872794 [36] 918798897 [37] 570613273 [38] 980429472 [39] 731608622 [40] 487984149 [41] 115611399 [42] 1030534784 [43] 259801284 [44] 449356970 [45] 788278953 [46] 30409106 [47] 623473562 [48] 593719413 ;
